solution status: optimal solution found
objective value:                     131881.123765305
d11(0,0)                                            1 	(obj:0)
d11(1,1)                                            1 	(obj:0)
d11(2,5)                                            1 	(obj:0)
d11(3,7)                                            1 	(obj:0)
d11(3,8)                                            1 	(obj:0)
d11(3,9)                                            1 	(obj:0)
d11(3,10)                                           1 	(obj:0)
d11(3,11)                                           1 	(obj:0)
d11(3,12)                                           1 	(obj:0)
d11(3,13)                                           1 	(obj:0)
d11(3,14)                                           1 	(obj:0)
d12(2,4)                                            1 	(obj:0)
d12(2,6)                                            1 	(obj:0)
d21(3,7)                                            1 	(obj:0)
d21(3,8)                                            1 	(obj:0)
d21(3,9)                                            1 	(obj:0)
WB(2)                                3315.65537776224 	(obj:0)
y2(2,4)                              1385.48851144896 	(obj:0)
y2(2,6)                              1385.48851144896 	(obj:0)
STE(1,1)                             8484.75010111115 	(obj:0)
STE(0,0)                                        11025 	(obj:0)
STE(1,2)                                        10143 	(obj:0)
STE(2,3)                             7602.75010111115 	(obj:0)
STE(2,4)                             8918.96418698767 	(obj:0)
STE(2,5)                                         9261 	(obj:0)
STE(2,6)                             10577.2140858765 	(obj:0)
STE(3,7)                             2751.75010111092 	(obj:0)
STE(3,8)                             4409.99999999974 	(obj:0)
STE(3,9)                             4067.96418698743 	(obj:0)
STE(3,10)                            5726.21408587625 	(obj:0)
STE(3,11)                            4409.99999999977 	(obj:0)
STE(3,12)                            6068.24989888858 	(obj:0)
STE(3,13)                            5726.21408587628 	(obj:0)
STE(3,14)                             7384.4639847651 	(obj:0)
AVE(2)                               3315.65537776224 	(obj:0)
y1(1,1)                              1492.42490899996 	(obj:0)
y1(3,7)                              3572.10000000021 	(obj:0)
y1(3,8)                              2079.67509100027 	(obj:0)
y1(3,9)                              3572.10000000021 	(obj:0)
y1(3,10)                             2079.67509100027 	(obj:0)
y1(3,11)                             3572.10000000021 	(obj:0)
y1(3,12)                             2079.67509100027 	(obj:0)
y1(3,13)                             3572.10000000021 	(obj:0)
y1(3,14)                             2079.67509100027 	(obj:0)
AVE(3)                               3315.65799770399 	(obj:0)
WB(1)                                3248.33172520918 	(obj:0)
WG(3)                                3315.65799770399 	(obj:10)
BG(1)                                4196.29249897959 	(obj:10)
BG(2)                                2673.40993877551 	(obj:10)
BG(3)                                3002.75194107177 	(obj:10)
AVE(1)                               3248.33172520918 	(obj:0)
